benchmarks/bfuzz0/131282252725871191038183194481758525767.smt2
(set-logic QF_FP)
(declare-const x0 (_ FloatingPoint 8 24))
(declare-const x1 (_ FloatingPoint 8 24))
(declare-const x2 (_ FloatingPoint 8 24))
(declare-const x3 (_ FloatingPoint 8 24))
(assert (fp.eq (fp.mul RNE (fp.add RNE (fp.sub RNE x0 x1) (fp.div RNE x0 x2)) (fp.mul RNE (fp.add RNE x1 x3) (fp.sub RNE x3 x0))) (fp.sub RNE (fp.sub RNE (fp.sub RNE x2 x0) (fp.sub RNE x3 x1)) (fp.neg (fp.div RNE x0 x2)))))
(assert (fp.leq (fp.mul RNE (fp.add RNE (fp.neg x3) (fp.add RNE x1 x3)) (fp.mul RNE (fp.div RNE x0 x0) (fp.neg x2))) (fp.sub RNE (fp.div RNE (fp.mul RNE x3 x3) (fp.neg x3)) (fp.add RNE (fp.neg x1) (fp.sub RNE x1 x2)))))
(assert (fp.gt (fp.div RNE (fp.div RNE (fp.add RNE x2 x3) (fp.mul RNE x2 x3)) (fp.div RNE (fp.mul RNE x3 x3) (fp.neg x0))) (fp.mul RNE (fp.mul RNE (fp.add RNE x0 x3) (fp.neg x0)) (fp.div RNE (fp.neg x0) (fp.mul RNE x0 x2)))))
(check-sat)
