db/data/131282252725871191038183194481758525767.z3.out
sat
-------------------
48.103834307
